K-Spacing Value to Generate K-Mesh: 0.030
0
Gamma
   4   4   2
0.0  0.0  0.0
